%nprocshared=20
%mem=4GB
%chk=1_10_phen_Ir.chk
# opt=tight freq=noraman 6-311+g(d,p) geom=connectivity int=ultrafine m062x

tit

0 1
 C                 -2.12778400   -2.52023500   -0.58935100
 H                 -1.16142500   -2.99737200   -0.48491300
 C                 -3.32632500   -3.27455200   -0.63777000
 C                 -4.55229900   -2.61874400   -0.74284600
 C                 -4.57859200   -1.19668100   -0.78073600
 C                 -5.79611600   -0.42353200   -0.86512000
 H                 -6.74437800   -0.95332500   -0.92097200
 C                 -5.76325300    0.95189100   -0.86899000
 H                 -6.68496500    1.52622100   -0.92968200
 C                 -4.51063600    1.66652000   -0.78207400
 C                 -4.41767000    3.08642000   -0.74922400
 C                 -3.16342500    3.68556800   -0.64323600
 C                 -1.99714800    2.88009400   -0.57251200
 H                 -0.99568700    3.29207700   -0.47801800
 C                 -3.29706400    0.92631900   -0.71198000
 C                 -3.33088500   -0.51403800   -0.72247200
 C                  2.43498400   -2.69773900   -2.25760600
 C                  2.89011500   -2.82553300   -0.74614000
 C                  1.55832300   -3.87122500   -2.73922600
 H                  0.74949000   -4.07741400   -2.02836000
 H                  2.14434700   -4.78929100   -2.87555500
 H                  1.10546700   -3.59983700   -3.69986700
 C                  3.56287300   -2.42576600   -3.25998000
 H                  3.13946500   -2.32198500   -4.26618600
 H                  4.28725800   -3.25198400   -3.27422800
 H                  4.08822700   -1.49790600   -3.01940700
 C                  3.06108500   -4.25915200   -0.23152800
 H                  3.32911600   -4.23467500    0.83135800
 H                  3.86386700   -4.77675400   -0.77434200
 H                  2.13859600   -4.83830000   -0.33268900
 C                  4.12837300   -1.97185800   -0.40876700
 H                  3.97416800   -0.93157600   -0.71297900
 H                  5.03489000   -2.36558000   -0.88675900
 H                  4.27633200   -1.98303100    0.67767100
 C                  3.32962600    2.49036100   -0.15284900
 C                  2.28268900    3.61543500   -0.53254000
 C                  3.62573700    2.41160200    1.35834800
 H                  2.69828800    2.31107600    1.93116900
 H                  4.18424800    3.28879200    1.71035900
 H                  4.22930000    1.51629700    1.54849300
 C                  4.63343300    2.51536500   -0.95925500
 H                  5.26328000    1.67099000   -0.65525100
 H                  5.19312900    3.44264800   -0.77432000
 H                  4.44568200    2.42412300   -2.03272100
 C                  2.27817400    4.84088200    0.38872400
 H                  1.50150200    5.54451700    0.06406900
 H                  3.24483400    5.36166600    0.35340500
 H                  2.06888200    4.55796500    1.42381500
 C                  2.35381700    4.04568600   -2.01165000
 H                  2.33588700    3.17365500   -2.67478900
 H                  3.25894000    4.62921800   -2.22287700
 H                  1.48069300    4.66747100   -2.24420900
 B                  1.09331400   -1.26774700   -0.88270100
 B                  1.18509300    1.47252000   -0.45435800
 N                 -2.12511500   -1.17511200   -0.64805100
 N                 -2.06281900    1.53284400   -0.60962900
 O                  1.55245400   -1.49314600   -2.21363600
 O                  1.73713100   -2.20038500   -0.02327900
 O                  2.58428300    1.24560400   -0.50204900
 O                  0.98463500    2.89398300   -0.36498700
 Ir                -0.35204200    0.11767400   -0.55460500
 B                 -0.07793400   -0.25161000    1.38145700
 O                 -0.80495800   -1.25658500    2.07434300
 O                  0.76474600    0.42803500    2.28893900
 C                 -0.53936400   -1.13726600    3.54132900
 C                  0.84029900   -0.35589700    3.56259800
 C                 -1.71090800   -0.32875700    4.13296000
 C                 -0.49817800   -2.54864100    4.13658800
 C                  1.01627100    0.62879900    4.72296400
 C                  2.06766300   -1.27867100    3.43209900
 H                 -1.74914500    0.67931800    3.70442900
 H                 -1.63577900   -0.24277200    5.22452600
 H                 -2.65021000   -0.83867000    3.88875800
 H                 -1.48883100   -3.01178400    4.05315600
 H                 -0.22169600   -2.51841700    5.19941600
 H                  0.21671500   -3.18056600    3.60319700
 H                  1.97527300    1.14889900    4.61550700
 H                  1.02005100    0.10125300    5.68662900
 H                  0.22382600    1.38239700    4.73610900
 H                  1.97091300   -1.93510300    2.56089100
 H                  2.21587600   -1.88433100    4.33558000
 H                  2.95740500   -0.65615600    3.28126200
 H                 -3.05757300    4.76528800   -0.60951300
 H                 -5.32213000    3.68773600   -0.80193800
 H                 -5.48338500   -3.17834900   -0.78703900
 H                 -3.26953000   -4.35722600   -0.59000200

 1 2 1.0 3 1.5 55 1.5
 2
 3 4 1.5 86 1.0
 4 5 1.5 85 1.0
 5 6 1.5 16 1.5
 6 7 1.0 8 2.0
 7
 8 9 1.0 10 1.5
 9
 10 11 1.5 15 1.5
 11 12 1.5 84 1.0
 12 13 1.5 83 1.0
 13 14 1.0 56 1.5
 14
 15 16 1.5 56 1.5
 16 55 1.5
 17 18 1.0 19 1.0 23 1.0 57 1.0
 18 27 1.0 31 1.0 58 1.0
 19 20 1.0 21 1.0 22 1.0
 20
 21
 22
 23 24 1.0 25 1.0 26 1.0
 24
 25
 26
 27 28 1.0 29 1.0 30 1.0
 28
 29
 30
 31 32 1.0 33 1.0 34 1.0
 32
 33
 34
 35 36 1.0 37 1.0 41 1.0 59 1.0
 36 45 1.0 49 1.0 60 1.0
 37 38 1.0 39 1.0 40 1.0
 38
 39
 40
 41 42 1.0 43 1.0 44 1.0
 42
 43
 44
 45 46 1.0 47 1.0 48 1.0
 46
 47
 48
 49 50 1.0 51 1.0 52 1.0
 50
 51
 52
 53 57 1.0 58 1.0 61 1.0
 54 59 1.0 60 1.0 61 1.0
 55
 56
 57
 58
 59
 60
 61 62 1.0
 62 63 1.0 64 1.0
 63 65 1.0
 64 66 1.0
 65 66 1.0 67 1.0 68 1.0
 66 69 1.0 70 1.0
 67 71 1.0 72 1.0 73 1.0
 68 74 1.0 75 1.0 76 1.0
 69 77 1.0 78 1.0 79 1.0
 70 80 1.0 81 1.0 82 1.0
 71
 72
 73
 74
 75
 76
 77
 78
 79
 80
 81
 82
 83
 84
 85
 86

