%nprocshared=21
%mem=100MW
%chk=Ir2mphen_left.chk
# freq rb3lyp/lanl2dz scrf=check guess=tcheck geom=(connectivity,allcheck)
genchk

1

0 1
 C                 -1.93633100   -2.85910500   -0.57035100
 C                 -3.05934700   -3.71754400   -0.67894100
 C                 -4.33092000   -3.17537900   -0.84142200
 C                 -4.48375700   -1.76163300   -0.88350900
 C                 -5.76876000   -1.12300500   -1.02484200
 H                 -6.65316400   -1.74815400   -1.12329900
 C                 -5.87092400    0.24690300   -1.02423600
 H                 -6.83962100    0.73176700   -1.12210900
 C                 -4.70030900    1.07745700   -0.88496600
 C                 -4.77126100    2.49570700   -0.84505900
 C                 -3.60278500    3.22455600   -0.68329400
 C                 -2.33844500    2.56885400   -0.57597100
 C                 -3.41166500    0.47988100   -0.77031900
 C                 -3.30925000   -0.96008000   -0.76714200
 C                  3.25002500   -2.54855000   -0.88740800
 C                  2.28703500   -3.52513800   -0.10037600
 C                  3.34996300   -2.86829700   -2.39282700
 H                  2.35522600   -2.98765100   -2.83709000
 H                  3.93060000   -3.78123500   -2.57745400
 H                  3.84608100   -2.03315900   -2.89998300
 C                  4.64616900   -2.37825000   -0.27654200
 H                  5.22774500   -1.67159400   -0.88080900
 H                  5.18686100   -3.33445900   -0.25620200
 H                  4.58704700   -1.98262800    0.74090100
 C                  2.20290400   -4.95115700   -0.65759800
 H                  1.47769100   -5.53055100   -0.07322800
 H                  3.17588900   -5.45589000   -0.58506300
 H                  1.88182800   -4.95974100   -1.70317400
 C                  2.54221400   -3.54681900    1.41942500
 H                  2.51897600   -2.53295300    1.83058500
 H                  3.50208800   -4.02078200    1.66245200
 H                  1.74101900   -4.11852100    1.90313500
 C                  3.01454500    2.75323600   -0.53946500
 C                  2.78810100    2.42761200   -2.08239600
 C                  2.59604500    4.17948400   -0.13065300
 H                  1.58058400    4.41261900   -0.46521100
 H                  3.27985900    4.93333400   -0.54127400
 H                  2.61646700    4.25178300    0.96310100
 C                  4.42610500    2.45201500   -0.01605200
 H                  4.47267400    2.67866800    1.05609700
 H                  5.18002000    3.06432300   -0.52973300
 H                  4.67405800    1.39588100   -0.14648300
 C                  2.72556900    3.64930900   -3.00845500
 H                  2.48679400    3.31606000   -4.02522400
 H                  3.69170700    4.17175800   -3.03679100
 H                  1.95328600    4.35959900   -2.69845700
 C                  3.76799000    1.38026500   -2.64613600
 H                  3.74153200    0.46972900   -2.04069000
 H                  4.79501800    1.76608200   -2.68978100
 H                  3.45151100    1.11888700   -3.66327800
 B                  1.14702400   -1.44999700   -0.51623300
 B                  1.15285300    1.25371500   -0.78148600
 N                 -2.05579900   -1.51496700   -0.62313000
 N                 -2.24832800    1.21594100   -0.63666800
 O                  2.52881900   -1.24697800   -0.77509900
 O                  0.96454300   -2.85864700   -0.29770200
 O                  2.07298000    1.81503800    0.13812700
 O                  1.43856200    1.78142700   -2.07816200
 Ir                -0.36974000   -0.07599300   -0.53418500
 B                 -0.07005400    0.16422700    1.41666200
 O                  0.72424800   -0.61953100    2.28264200
 O                 -0.72297500    1.18070600    2.17018100
 C                  0.45099800   -0.23433700    3.70084200
 C                 -0.11445900    1.23774300    3.53914000
 C                 -0.59142600   -1.23834300    4.23154800
 C                  1.76152900   -0.34729600    4.48718300
 C                 -1.21061100    1.63110500    4.53475900
 C                  0.99012700    2.31101600    3.48509600
 H                 -1.52985700   -1.16628000    3.66994100
 H                 -0.80544900   -1.07815600    5.29597300
 H                 -0.19777900   -2.25308500    4.10328500
 H                  2.07952000   -1.39618200    4.52051800
 H                  1.63223000    0.00463200    5.51981900
 H                  2.55805500    0.23189000    4.01268800
 H                 -1.56954500    2.64028500    4.30062700
 H                 -0.82183500    1.63667000    5.56230200
 H                 -2.06486900    0.95000000    4.48498000
 H                  1.73019100    2.06805100    2.71568600
 H                  1.49190500    2.42305000    4.45489000
 H                  0.53427000    3.27319500    3.22111500
 H                 -2.90440700   -4.79082500   -0.63280500
 H                 -5.20695600   -3.81345400   -0.92982000
 H                 -5.73438000    2.99254200   -0.93266300
 H                 -3.62561000    4.30814100   -0.63625900
 H                 -0.92513400   -3.23199500   -0.43487900
 C                 -1.09480300    3.38907400   -0.39109300
 H                 -0.55208800    3.04126300    0.49384800
 H                 -0.42898000    3.27131300   -1.25310400
 H                 -1.34634200    4.44887100   -0.27447000

 1 2 1.5 53 1.5 85 1.0
 2 3 1.5 81 1.0
 3 4 1.5 82 1.0
 4 5 1.5 14 1.5
 5 6 1.0 7 2.0
 6
 7 8 1.0 9 1.5
 8
 9 10 1.5 13 1.5
 10 11 1.5 83 1.0
 11 12 1.5 84 1.0
 12 54 1.5 86 1.0
 13 14 1.5 54 1.0
 14 53 1.5
 15 16 1.0 17 1.0 21 1.0 55 1.0
 16 25 1.0 29 1.0 56 1.0
 17 18 1.0 19 1.0 20 1.0
 18
 19
 20
 21 22 1.0 23 1.0 24 1.0
 22
 23
 24
 25 26 1.0 27 1.0 28 1.0
 26
 27
 28
 29 30 1.0 31 1.0 32 1.0
 30
 31
 32
 33 34 1.0 35 1.0 39 1.0 57 1.0
 34 43 1.0 47 1.0 58 1.0
 35 36 1.0 37 1.0 38 1.0
 36
 37
 38
 39 40 1.0 41 1.0 42 1.0
 40
 41
 42
 43 44 1.0 45 1.0 46 1.0
 44
 45
 46
 47 48 1.0 49 1.0 50 1.0
 48
 49
 50
 51 55 1.0 56 1.0 59 1.0
 52 57 1.0 58 1.0 59 1.0
 53
 54
 55
 56
 57
 58
 59 60 1.0
 60 61 1.0 62 1.0
 61 63 1.0
 62 64 1.0
 63 64 1.0 65 1.0 66 1.0
 64 67 1.0 68 1.0
 65 69 1.0 70 1.0 71 1.0
 66 72 1.0 73 1.0 74 1.0
 67 75 1.0 76 1.0 77 1.0
 68 78 1.0 79 1.0 80 1.0
 69
 70
 71
 72
 73
 74
 75
 76
 77
 78
 79
 80
 81
 82
 83
 84
 85
 86 87 1.0 88 1.0 89 1.0
 87
 88
 89

