%nprocshared=20
%mem=4GB
%chk=Ir5Phbpy.chk
# opt=tight freq=noraman 6-311+g(d,p) geom=connectivity int=ultrafine m062x

tit

0 1
 C                  1.86251700   -3.17327000   -0.77300700
 H                  2.69140900   -2.48698700   -0.65617900
 C                  2.05277500   -4.55684200   -0.89142200
 C                  0.92416200   -5.39132900   -0.99840700
 C                 -0.35441400   -4.81440700   -0.96735000
 C                 -3.02993700   -3.37091700   -0.83051600
 C                 -4.21208900   -2.63382900   -0.68850900
 C                 -4.15758900   -1.23586400   -0.48109500
 C                 -2.87368100   -0.64369500   -0.43691600
 H                 -2.72776900    0.42562300   -0.30951800
 C                 -1.78483700   -2.71798000   -0.75554000
 C                 -0.48196200   -3.41545900   -0.84589400
 C                  3.91460900    0.87017700   -2.48006800
 C                  4.38213600    1.07755800   -0.98060200
 C                  4.49678200   -0.39555400   -3.14064400
 H                  4.36592800   -1.27480500   -2.49901100
 H                  5.56552600   -0.28402000   -3.36488200
 H                  3.96095400   -0.57947200   -4.07916800
 C                  4.10075500    2.08544000   -3.39630100
 H                  3.72050700    1.84900600   -4.39724800
 H                  5.16210400    2.35595400   -3.48544800
 H                  3.54501800    2.94855000   -3.02098400
 C                  5.77074200    0.52268200   -0.64475400
 H                  5.97427400    0.67120500    0.42242600
 H                  6.54975100    1.04536800   -1.21670000
 H                  5.84047200   -0.54857400   -0.85493000
 C                  4.24050200    2.53316000   -0.49424200
 H                  3.22351700    2.89859100   -0.66965300
 H                  4.96209100    3.19744300   -0.98725100
 H                  4.42439500    2.56136600    0.58643500
 C                 -0.04196000    3.87342600    0.12950600
 C                 -1.54509700    3.49769100   -0.19054000
 C                  0.24851200    4.00783900    1.63761900
 H                 -0.06805500    3.10814000    2.17487000
 H                 -0.24318100    4.88945600    2.06921100
 H                  1.33104200    4.11077100    1.77671400
 C                  0.50290100    5.08364600   -0.63850800
 H                  1.55655200    5.23632000   -0.37643000
 H                 -0.04931500    5.99686700   -0.37675400
 H                  0.44397600    4.93332300   -1.72014200
 C                 -2.57890300    4.02240300    0.81279500
 H                 -3.58020200    3.68037400    0.52216700
 H                 -2.58797300    5.12080500    0.82841600
 H                 -2.37140100    3.65925900    1.82323300
 C                 -1.96698500    3.83540500   -1.63456400
 H                 -1.24152100    3.44312800   -2.35585200
 H                 -2.06311800    4.91796700   -1.78724400
 H                 -2.93809600    3.36966100   -1.84096200
 B                  2.16025900    0.21847000   -0.98536400
 B                 -0.17152600    1.52211900   -0.30200700
 N                  0.62563100   -2.61157600   -0.76930200
 N                 -1.72813000   -1.35970500   -0.56225300
 O                  2.44883900    0.63416500   -2.31732200
 O                  3.36158900    0.28199000   -0.22582200
 O                  0.68298100    2.65463800   -0.33516000
 O                 -1.51068900    2.00615400   -0.09697400
 Ir                 0.30001300   -0.46060100   -0.54802700
 B                  0.90942400   -0.47975800    1.34563000
 O                  1.51479600   -1.62391200    1.93360200
 O                  0.77704700    0.53240900    2.32302000
 C                  1.65163400   -1.41066900    3.40701400
 C                  1.61135900    0.17059900    3.51335800
 C                  0.44002200   -2.10109200    4.06325400
 C                  2.96136200   -2.06224100    3.86376400
 C                  0.92654600    0.72472200    4.76674200
 C                  2.98685300    0.83059100    3.29711400
 H                 -0.49998300   -1.64524900    3.73183100
 H                  0.48661900   -2.05095800    5.15861800
 H                  0.43131400   -3.15579600    3.76391400
 H                  2.89859600   -3.14824700    3.72462400
 H                  3.15042100   -1.86302900    4.92754300
 H                  3.80880400   -1.69422600    3.27946300
 H                  0.91049000    1.81982500    4.71826900
 H                  1.47345700    0.43131600    5.67330100
 H                 -0.10668200    0.37590400    4.84990600
 H                  3.44212500    0.48054500    2.36468500
 H                  3.66631700    0.63273800    4.13631000
 H                  2.84495400    1.91428000    3.21178000
 H                  3.05895100   -4.96311500   -0.89151300
 H                  1.03718200   -6.46775000   -1.09275000
 H                 -5.16845500   -3.14789700   -0.71303500
 C                 -5.38206800   -0.40994300   -0.31053200
 C                 -5.35304300    0.77406800    0.46688400
 C                 -6.60578800   -0.78858200   -0.91483800
 C                 -6.51210600    1.54952900    0.63667500
 H                 -4.43022600    1.07949900    0.95250600
 C                 -7.76486500   -0.01322100   -0.74418500
 H                 -6.64965400   -1.67386800   -1.54478000
 C                 -7.72420500    1.15969100    0.03451200
 H                 -6.47114700    2.45078400    1.24340600
 H                 -8.69263100   -0.31699300   -1.22304400
 H                 -8.62062300    1.76038700    0.16736100
 H                 -1.23405600   -5.44536000   -1.02810100
 H                 -3.08130300   -4.44298700   -0.98328900

 1 2 1.0 3 1.5 51 1.5
 2
 3 4 1.5 79 1.0
 4 5 1.5 80 1.0
 5 12 1.5 93 1.0
 6 7 1.5 11 1.5 94 1.0
 7 8 1.5 81 1.0
 8 9 1.5 82 1.0
 9 10 1.0 52 1.5
 10
 11 12 1.0 52 1.5
 12 51 1.5
 13 14 1.0 15 1.0 19 1.0 53 1.0
 14 23 1.0 27 1.0 54 1.0
 15 16 1.0 17 1.0 18 1.0
 16
 17
 18
 19 20 1.0 21 1.0 22 1.0
 20
 21
 22
 23 24 1.0 25 1.0 26 1.0
 24
 25
 26
 27 28 1.0 29 1.0 30 1.0
 28
 29
 30
 31 32 1.0 33 1.0 37 1.0 55 1.0
 32 41 1.0 45 1.0 56 1.0
 33 34 1.0 35 1.0 36 1.0
 34
 35
 36
 37 38 1.0 39 1.0 40 1.0
 38
 39
 40
 41 42 1.0 43 1.0 44 1.0
 42
 43
 44
 45 46 1.0 47 1.0 48 1.0
 46
 47
 48
 49 53 1.0 54 1.0 57 1.0
 50 55 1.0 56 1.0 57 1.0
 51
 52
 53
 54
 55
 56
 57 58 1.0
 58 59 1.0 60 1.0
 59 61 1.0
 60 62 1.0
 61 62 1.0 63 1.0 64 1.0
 62 65 1.0 66 1.0
 63 67 1.0 68 1.0 69 1.0
 64 70 1.0 71 1.0 72 1.0
 65 73 1.0 74 1.0 75 1.0
 66 76 1.0 77 1.0 78 1.0
 67
 68
 69
 70
 71
 72
 73
 74
 75
 76
 77
 78
 79
 80
 81
 82 83 1.5 84 1.5
 83 85 1.5 86 1.0
 84 87 1.5 88 1.0
 85 89 1.5 90 1.0
 86
 87 89 1.5 91 1.0
 88
 89 92 1.0
 90
 91
 92
 93
 94

