%nprocshared=20
%mem=4GB
%chk=Irdmpe_charges.chk
# opt=tight freq=noraman b3lyp/6-311+g(d,p) geom=connectivity int=ultrafine

1

0 1
 C                 -1.77836800   -0.46251200    3.31587000
 C                 -0.33039000    0.15100400    3.53061500
 C                 -2.91750900    0.54722500    3.55309400
 H                 -2.73418200    1.48370400    3.01469500
 H                 -3.03812900    0.77925200    4.61858000
 H                 -3.85686800    0.11648300    3.18588200
 C                 -2.04995500   -1.76780600    4.07248100
 H                 -3.05886800   -2.12826600    3.83708000
 H                 -1.98870800   -1.61251200    5.15811600
 H                 -1.33564200   -2.54467300    3.78810500
 C                 -0.24934500    1.29036100    4.55233200
 H                  0.77482000    1.68006200    4.57751500
 H                 -0.50205700    0.93144600    5.55934700
 H                 -0.91724800    2.11743000    4.29525600
 C                  0.75187100   -0.91011800    3.80836800
 H                  0.75874400   -1.67685800    3.02709400
 H                  0.61498400   -1.38060500    4.79062700
 H                  1.73181300   -0.41922200    3.79178900
 C                  2.57924700   -2.95715700    0.26604100
 C                  2.40899800   -3.16587000   -1.29393700
 C                  3.76981400   -2.04974900    0.63416500
 H                  3.71650300   -1.09978000    0.09261100
 H                  4.73084100   -2.53831700    0.42669000
 H                  3.71918200   -1.82376500    1.70591000
 C                  2.59637900   -4.24320600    1.09983800
 H                  2.66609400   -3.98630600    2.16346500
 H                  3.46431700   -4.86529500    0.84152700
 H                  1.68580900   -4.83145000    0.95447200
 C                  3.70741200   -3.12260700   -2.10704000
 H                  3.47515000   -3.23625400   -3.17272800
 H                  4.38547300   -3.93610700   -1.81375500
 H                  4.22240700   -2.16750500   -1.97543200
 C                  1.57966900   -4.41281700   -1.66053200
 H                  0.64871500   -4.44884200   -1.08258500
 H                  2.13715000   -5.34127900   -1.48195700
 H                  1.32135200   -4.36216000   -2.72489600
 B                 -0.75365400   -0.00826600    1.19947200
 B                  0.89636600   -1.47717900   -0.53154600
 O                 -1.77373200   -0.76722600    1.84957200
 O                 -0.03221500    0.71322900    2.17596500
 O                  1.33964800   -2.18894700    0.61176700
 O                  1.58238600   -1.97782400   -1.67533500
 B                  1.00397100    1.37959900   -0.47512600
 O                  0.79837300    2.79584400   -0.55032900
 O                  2.38100700    1.15014800   -0.23932000
 C                  2.11484200    3.50856800   -0.52678400
 C                  3.06043900    2.42782600    0.13881300
 C                  2.47137100    3.81329900   -1.99573500
 C                  1.94412000    4.80818200    0.26809600
 C                  4.49353100    2.38955100   -0.40428000
 C                  3.06275600    2.47771000    1.67945200
 H                  2.57040300    2.88890600   -2.57590700
 H                  3.40681600    4.38111400   -2.07866100
 H                  1.66630600    4.41059200   -2.44092700
 H                  1.24814600    5.47332000   -0.25783000
 H                  2.90281000    5.33408100    0.37421600
 H                  1.53920100    4.61245600    1.26465500
 H                  5.04432800    1.57713900    0.08413000
 H                  5.01904700    3.33179200   -0.19612300
 H                  4.51199300    2.20632700   -1.48226900
 H                  2.04166200    2.43056400    2.07104900
 H                  3.56140300    3.38044200    2.05580100
 H                  3.60170000    1.60014800    2.05515900
 P                 -2.45212800   -1.49597000   -1.24533600
 C                 -4.01383100   -0.41112300   -1.02937300
 H                 -4.14765400   -0.29901400    0.05346500
 H                 -4.89037100   -0.94015100   -1.42838800
 P                 -2.16500100    1.79225000   -1.30180100
 C                 -3.85804500    0.97002700   -1.70614700
 H                 -4.66978900    1.64324200   -1.40028100
 H                 -3.91363900    0.87053100   -2.79910300
 Ir                -0.50462700    0.00091400   -0.77949800
 C                 -2.57997300    3.03267700    0.05436600
 H                 -3.33520900    3.75185000   -0.28568400
 H                 -2.94977700    2.50096000    0.93590200
 H                 -1.65204800    3.54958800    0.31424700
 C                 -1.90460900    2.93205800   -2.78482700
 H                 -1.01092800    3.52961700   -2.58453700
 H                 -1.73593900    2.33437900   -3.68713600
 H                 -2.76807300    3.59064800   -2.93928000
 C                 -2.65056900   -2.14387600   -3.01536200
 H                 -3.60159400   -2.67705500   -3.13624900
 H                 -2.61009100   -1.31089700   -3.72544700
 H                 -1.82135300   -2.82308700   -3.23850600
 C                 -2.85342500   -3.02061100   -0.21716500
 H                 -2.11704900   -3.80107200   -0.43598000
 H                 -2.76167100   -2.73239400    0.83240800
 H                 -3.86079700   -3.39654000   -0.43439200

 1 2 1.0 3 1.0 7 1.0 39 1.0
 2 11 1.0 15 1.0 40 1.0
 3 4 1.0 5 1.0 6 1.0
 4
 5
 6
 7 8 1.0 9 1.0 10 1.0
 8
 9
 10
 11 12 1.0 13 1.0 14 1.0
 12
 13
 14
 15 16 1.0 17 1.0 18 1.0
 16
 17
 18
 19 20 1.0 21 1.0 25 1.0 41 1.0
 20 29 1.0 33 1.0 42 1.0
 21 22 1.0 23 1.0 24 1.0
 22
 23
 24
 25 26 1.0 27 1.0 28 1.0
 26
 27
 28
 29 30 1.0 31 1.0 32 1.0
 30
 31
 32
 33 34 1.0 35 1.0 36 1.0
 34
 35
 36
 37 39 1.0 40 1.0 72 1.0
 38 41 1.0 42 1.0 72 1.0
 39
 40
 41
 42
 43 44 1.0 45 1.0 72 1.0
 44 46 1.0
 45 47 1.0
 46 47 1.0 48 1.0 49 1.0
 47 50 1.0 51 1.0
 48 52 1.0 53 1.0 54 1.0
 49 55 1.0 56 1.0 57 1.0
 50 58 1.0 59 1.0 60 1.0
 51 61 1.0 62 1.0 63 1.0
 52
 53
 54
 55
 56
 57
 58
 59
 60
 61
 62
 63
 64 65 1.0 81 1.0 85 1.0
 65 66 1.0 67 1.0 69 1.0
 66
 67
 68 69 1.0 73 1.0 77 1.0
 69 70 1.0 71 1.0
 70
 71
 72
 73 74 1.0 75 1.0 76 1.0
 74
 75
 76
 77 78 1.0 79 1.0 80 1.0
 78
 79
 80
 81 82 1.0 83 1.0 84 1.0
 82
 83
 84
 85 86 1.0 87 1.0 88 1.0
 86
 87
 88

