%nprocshared=21
%mem=100MW
%chk=Irdppe.chk
# freq rb3lyp/lanl2dz scrf=check guess=tcheck geom=(connectivity,allcheck)
genchk

1

0 1
 C                 -0.14511000   -2.38956600    3.26355400
 C                  0.54332700   -3.38282700    2.23252100
 C                  0.84064700   -1.74719800    4.25581700
 H                  1.69874300   -1.30856800    3.73765700
 H                  1.20978500   -2.47855700    4.98609400
 H                  0.32620700   -0.94612800    4.79982300
 C                 -1.36147600   -2.96089300    4.00202700
 H                 -1.79108800   -2.19007600    4.65366200
 H                 -1.07084600   -3.81310400    4.63099200
 H                 -2.13451200   -3.28966500    3.30213700
 C                  1.80950500   -4.07651600    2.74659100
 H                  2.23346200   -4.69508800    1.94678500
 H                  1.57880800   -4.73157700    3.59765700
 H                  2.56858800   -3.35182200    3.05336000
 C                 -0.43247800   -4.40335600    1.61688700
 H                 -1.29052300   -3.89762800    1.16278100
 H                 -0.78137700   -5.12902200    2.36292200
 H                  0.08745300   -4.94800700    0.82010000
 C                 -2.88954700   -2.90453800   -1.81992500
 C                 -3.35509400   -1.58996900   -2.57271100
 C                 -1.97439100   -3.80490500   -2.67153500
 H                 -1.13129500   -3.23173300   -3.06964000
 H                 -2.52522500   -4.27502400   -3.49643100
 H                 -1.56611200   -4.59525400   -2.03059300
 C                 -4.01740400   -3.72157000   -1.17961400
 H                 -3.58908900   -4.58218800   -0.65213400
 H                 -4.70893600   -4.10011200   -1.94465700
 H                 -4.58344800   -3.12863400   -0.45576500
 C                 -3.47166400   -1.71464700   -4.09584100
 H                 -3.75916900   -0.74562300   -4.52145200
 H                 -4.23840400   -2.45077000   -4.37387300
 H                 -2.51880900   -2.01020800   -4.54278100
 C                 -4.62819000   -0.95900300   -1.97626200
 H                 -4.54418800   -0.84616100   -0.88970600
 H                 -5.51880200   -1.56087600   -2.19775300
 H                 -4.76968300    0.03793400   -2.41017500
 B                  0.10159200   -1.32001000    1.13927400
 B                 -1.52363900   -1.08887300   -1.11241800
 O                 -0.62396100   -1.29022900    2.36275400
 O                  0.93743500   -2.45491700    1.12531600
 O                 -2.03327100   -2.34843600   -0.72305700
 O                 -2.22863500   -0.64720100   -2.27016800
 B                  1.29144700   -1.00764600   -1.33697600
 O                  2.70792700   -0.86695600   -1.24405700
 O                  1.01102500   -1.94367000   -2.36495500
 C                  3.37410500   -1.59407000   -2.37042800
 C                  2.26647200   -2.65002700   -2.77084800
 C                  3.64756800   -0.54324900   -3.46384800
 C                  4.68828500   -2.18806000   -1.85043600
 C                  2.17944700   -2.97052100   -4.26702700
 C                  2.32395400   -3.94358000   -1.93495200
 H                  2.71129000   -0.11696000   -3.84159600
 H                  4.20413500   -0.97033200   -4.30788800
 H                  4.23834400    0.27229700   -3.03177600
 H                  5.37114100   -1.37776800   -1.56730800
 H                  5.17939800   -2.79214700   -2.62541000
 H                  4.52117100   -2.81662000   -0.97103800
 H                  1.35376900   -3.67027000   -4.44244700
 H                  3.10659700   -3.44158900   -4.62147700
 H                  1.99109600   -2.07240600   -4.86211900
 H                  2.32532900   -3.71182500   -0.86492500
 H                  3.20740000   -4.54713100   -2.18062300
 H                  1.42734300   -4.53746200   -2.14681100
 P                 -1.69236600    1.72943000    0.79524600
 C                 -0.69157500    2.68444400    2.11480000
 C                 -3.33331000    1.38671500    1.66029200
 C                 -3.44128300    0.20286800    2.42404000
 C                 -4.64259400   -0.08841100    3.09790500
 C                 -5.74294700    0.78583200    3.00633100
 C                 -5.63916800    1.95811500    2.23296500
 C                 -4.43864200    2.25894500    1.56147400
 C                 -2.10667400    3.05950100   -0.47680400
 C                 -2.20223500    4.43324400   -0.16215200
 C                 -2.49671900    5.37857400   -1.16236700
 C                 -2.70387900    4.95887400   -2.49097700
 C                 -2.61246800    3.59093600   -2.81074500
 C                 -2.31319800    2.64239800   -1.81298100
 H                 -0.56713400    1.98827800    2.95282600
 H                 -1.26430600    3.54502700    2.48219300
 H                 -2.59480000   -0.47786800    2.48075900
 H                 -4.72018200   -1.00175300    3.68370200
 H                 -6.67168200    0.55329100    3.52297300
 H                 -6.48781100    2.63316100    2.14752200
 H                 -4.37840500    3.15789200    0.95433100
 H                 -2.04820700    4.77958100    0.85722200
 H                 -2.56445300    6.43335000   -0.90561800
 H                 -2.93138900    5.68870200   -3.26470700
 H                 -2.76964600    3.25736700   -3.83379600
 H                 -2.25570700    1.58651900   -2.07524000
 P                  1.63573100    1.69625000    0.71145700
 C                  0.66739800    3.13377300    1.54172100
 C                  2.76872500    2.68694100   -0.42912100
 C                  2.32404700    2.94780800   -1.74297800
 C                  3.10713600    3.72002700   -2.61998700
 C                  4.34941400    4.23013500   -2.19478700
 C                  4.80277000    3.96152600   -0.88904500
 C                  4.01527700    3.19415500   -0.00907300
 C                  2.81189300    1.06492800    2.04335100
 C                  3.62234100   -0.04617500    1.71204100
 C                  4.53786400   -0.55383000    2.65179500
 C                  4.64425600    0.02399500    3.93264500
 C                  3.82442500    1.11629500    4.27137200
 C                  2.91434100    1.63555400    3.32928800
 H                  1.28210200    3.61624000    2.30965900
 H                  0.51571900    3.87542100    0.74909500
 H                  1.37541100    2.54039800   -2.08701500
 H                  2.75330900    3.91358100   -3.62987700
 H                  4.95843900    4.82270500   -2.87374400
 H                  5.76430600    4.34589800   -0.55600500
 H                  4.38017300    2.98473000    0.99303200
 H                  3.52490400   -0.50478300    0.73058000
 H                  5.16063000   -1.40452700    2.38451500
 H                  5.35057800   -0.37473100    4.65750900
 H                  3.89043500    1.56468800    5.26010700
 H                  2.29417400    2.47894700    3.61881200
 Ir                -0.07812400    0.09377500   -0.26284300

 1 2 1.0 3 1.0 7 1.0 39 1.0
 2 11 1.0 15 1.0 40 1.0
 3 4 1.0 5 1.0 6 1.0
 4
 5
 6
 7 8 1.0 9 1.0 10 1.0
 8
 9
 10
 11 12 1.0 13 1.0 14 1.0
 12
 13
 14
 15 16 1.0 17 1.0 18 1.0
 16
 17
 18
 19 20 1.0 21 1.0 25 1.0 41 1.0
 20 29 1.0 33 1.0 42 1.0
 21 22 1.0 23 1.0 24 1.0
 22
 23
 24
 25 26 1.0 27 1.0 28 1.0
 26
 27
 28
 29 30 1.0 31 1.0 32 1.0
 30
 31
 32
 33 34 1.0 35 1.0 36 1.0
 34
 35
 36
 37 39 1.0 40 1.0 116 1.0
 38 41 1.0 42 1.0 116 1.0
 39
 40
 41
 42
 43 44 1.0 45 1.0 116 1.0
 44 46 1.0
 45 47 1.0
 46 47 1.0 48 1.0 49 1.0
 47 50 1.0 51 1.0
 48 52 1.0 53 1.0 54 1.0
 49 55 1.0 56 1.0 57 1.0
 50 58 1.0 59 1.0 60 1.0
 51 61 1.0 62 1.0 63 1.0
 52
 53
 54
 55
 56
 57
 58
 59
 60
 61
 62
 63
 64 65 1.0 66 1.0 72 1.0
 65 78 1.0 79 1.0 91 1.0
 66 67 1.5 71 1.5
 67 68 1.5 80 1.0
 68 69 1.5 81 1.0
 69 70 1.5 82 1.0
 70 71 1.5 83 1.0
 71 84 1.0
 72 73 1.5 77 1.5
 73 74 1.5 85 1.0
 74 75 1.5 86 1.0
 75 76 1.5 87 1.0
 76 77 1.5 88 1.0
 77 89 1.0
 78
 79
 80
 81
 82
 83
 84
 85
 86
 87
 88
 89
 90 91 1.0 92 1.0 98 1.0
 91 104 1.0 105 1.0
 92 93 1.5 97 1.5
 93 94 1.5 106 1.0
 94 95 1.5 107 1.0
 95 96 1.5 108 1.0
 96 97 1.5 109 1.0
 97 110 1.0
 98 99 1.5 103 1.5
 99 100 1.5 111 1.0
 100 101 1.5 112 1.0
 101 102 1.5 113 1.0
 102 103 1.5 114 1.0
 103 115 1.0
 104
 105
 106
 107
 108
 109
 110
 111
 112
 113
 114
 115
 116

