%nprocshared=21
%mem=100MW
%chk=Irdtpby.chk
# freq rb3lyp/lanl2dz scrf=check guess=tcheck geom=(connectivity,allcheck)
genchk

1

0 1
 C                 -2.54114800    1.78511000   -0.47325500
 H                 -2.91124000    0.77499400   -0.35627500
 C                 -3.41033800    2.89761700   -0.50771600
 C                 -2.80349700    4.16521500   -0.63019600
 C                 -1.40518100    4.28021700   -0.68379100
 C                  1.64943600    4.30203100   -0.72135400
 C                  3.04980700    4.21760000   -0.64520600
 C                  3.67921500    2.97023400   -0.45823400
 C                  2.83270900    1.84064600   -0.36567200
 H                  3.21286700    0.83227000   -0.23076600
 C                  0.87209500    3.13750900   -0.60866500
 C                 -0.60803300    3.12425600   -0.63102400
 C                 -2.28963500   -2.69612300   -2.57550600
 C                 -2.70092500   -3.12309800   -1.10638200
 C                 -3.35287100   -1.83971300   -3.29173900
 H                 -3.68182300   -1.00686900   -2.65949200
 H                 -4.23230500   -2.43222500   -3.57575500
 H                 -2.90845800   -1.41697100   -4.20031000
 C                 -1.82499000   -3.84086500   -3.48370600
 H                 -1.53289100   -3.43513400   -4.45961900
 H                 -2.62831500   -4.57406800   -3.64159600
 H                 -0.95668100   -4.35082800   -3.05876200
 C                 -4.20572400   -3.28833900   -0.86702500
 H                 -4.38183400   -3.51649300    0.19089000
 H                 -4.60914900   -4.11572900   -1.46676400
 H                 -4.75905500   -2.37670200   -1.11178400
 C                 -1.92703100   -4.35330800   -0.59210700
 H                 -0.84789300   -4.19621500   -0.69074800
 H                 -2.21633900   -5.26668400   -1.12790000
 H                 -2.15027900   -4.49128400    0.47262400
 C                  2.54813500   -3.50051700    0.05278300
 C                  3.67447300   -2.44263800   -0.29111000
 C                  2.42365400   -3.79899500    1.56034800
 H                  2.28698800   -2.87437900    2.12986900
 H                  3.29727900   -4.34387700    1.94158000
 H                  1.53257400   -4.41738600    1.72026300
 C                  2.61369900   -4.80462500   -0.75144900
 H                  1.76529200   -5.44201100   -0.47565700
 H                  3.53923100   -5.35610800   -0.53525900
 H                  2.55665700   -4.61740000   -1.82729100
 C                  4.86709600   -2.42249100    0.67229600
 H                  5.57439200   -1.63993800    0.36988500
 H                  5.39905400   -3.38358200    0.65859400
 H                  4.54603500   -2.21403400    1.69648400
 C                  4.15650900   -2.51479500   -1.75414800
 H                  3.30771700   -2.50351700   -2.44677200
 H                  4.75335100   -3.41622400   -1.94277900
 H                  4.78093000   -1.63851000   -1.96800900
 B                 -1.14423500   -1.32184300   -0.98171600
 B                  1.51588300   -1.36649900   -0.29512800
 N                 -1.19265000    1.88759800   -0.54950900
 N                  1.48046300    1.91784600   -0.43863000
 O                 -1.11985500   -1.80417900   -2.32278400
 O                 -2.22113200   -1.95632800   -0.29859700
 O                  1.30942100   -2.76996300   -0.33976700
 O                  2.93419400   -1.15156200   -0.15365000
 Ir                 0.13882300    0.15052000   -0.44302900
 B                 -0.41834300   -0.26930800    1.41822300
 O                 -1.53080100    0.35450500    2.05335600
 O                  0.22151800   -1.12549800    2.34586400
 C                 -1.51483500    0.02702100    3.51153800
 C                 -0.66780100   -1.31167800    3.53443700
 C                 -0.81594900    1.20513200    4.21825700
 C                 -2.96423300   -0.11137700    3.98928400
 C                  0.21681200   -1.50741700    4.76992400
 C                 -1.51292400   -2.57026800    3.25630700
 H                  0.21872700    1.31080300    3.87267400
 H                 -0.81099900    1.08119500    5.30877400
 H                 -1.35182100    2.13036300    3.97569000
 H                 -3.47140900    0.85807700    3.91230800
 H                 -3.00246900   -0.43543500    5.03829400
 H                 -3.51357800   -0.83194800    3.37741100
 H                  0.79328700   -2.43347800    4.66061800
 H                 -0.39306500   -1.59009500    5.67998700
 H                  0.92482700   -0.68293400    4.89345300
 H                 -2.10117200   -2.44714600    2.34082100
 H                 -2.18325000   -2.80092200    4.09459300
 H                 -0.83673300   -3.41998300    3.10704100
 H                 -3.40784100    5.06475900   -0.67068000
 H                  3.63680000    5.12554900   -0.73178300
 H                  1.17538300    5.26666100   -0.86641000
 H                 -0.94778200    5.26115900   -0.75250000
 C                 -4.92998800    2.68159200   -0.37483100
 C                  5.20414000    2.77967400   -0.35403700
 C                  5.54368200    2.13704600    1.02407100
 H                  5.04807700    1.16787600    1.15162300
 H                  6.62716900    1.97752800    1.10638300
 H                  5.23025400    2.78959200    1.84946700
 C                  5.96825800    4.12092800   -0.47619300
 H                  7.04664500    3.93691500   -0.39383500
 H                  5.78988600    4.60732600   -1.44467000
 H                  5.69148300    4.82280800    0.32195000
 C                  5.67876400    1.83118100   -1.49518100
 H                  5.46371200    2.26369200   -2.48112200
 H                  6.76241600    1.66882700   -1.42123500
 H                  5.18454800    0.85475200   -1.43848700
 C                 -5.22443200    2.07943100    1.03223900
 H                 -6.29926600    1.87905600    1.13656900
 H                 -4.68221800    1.14096000    1.19324600
 H                 -4.92574700    2.77741300    1.82518800
 C                 -5.72025900    4.00525900   -0.52404300
 H                 -5.55271500    4.47336100   -1.50351800
 H                 -6.79452300    3.80207400   -0.43322400
 H                 -5.45627100    4.72995300    0.25752000
 C                 -5.41942100    1.69201400   -1.47261500
 H                 -6.50194400    1.53485500   -1.37735300
 H                 -5.21679900    2.08471700   -2.47753800
 H                 -4.93265800    0.71407100   -1.38573300

 1 2 1.0 3 1.5 51 1.5
 2
 3 4 1.5 83 1.0
 4 5 1.5 79 1.0
 5 12 1.5 82 1.0
 6 7 1.5 11 1.5 81 1.0
 7 8 1.5 80 1.0
 8 9 1.5 84 1.0
 9 10 1.0 52 1.5
 10
 11 12 1.0 52 1.5
 12 51 1.5
 13 14 1.0 15 1.0 19 1.0 53 1.0
 14 23 1.0 27 1.0 54 1.0
 15 16 1.0 17 1.0 18 1.0
 16
 17
 18
 19 20 1.0 21 1.0 22 1.0
 20
 21
 22
 23 24 1.0 25 1.0 26 1.0
 24
 25
 26
 27 28 1.0 29 1.0 30 1.0
 28
 29
 30
 31 32 1.0 33 1.0 37 1.0 55 1.0
 32 41 1.0 45 1.0 56 1.0
 33 34 1.0 35 1.0 36 1.0
 34
 35
 36
 37 38 1.0 39 1.0 40 1.0
 38
 39
 40
 41 42 1.0 43 1.0 44 1.0
 42
 43
 44
 45 46 1.0 47 1.0 48 1.0
 46
 47
 48
 49 53 1.0 54 1.0 57 1.0
 50 55 1.0 56 1.0 57 1.0
 51
 52
 53
 54
 55
 56
 57 58 1.0
 58 59 1.0 60 1.0
 59 61 1.0
 60 62 1.0
 61 62 1.0 63 1.0 64 1.0
 62 65 1.0 66 1.0
 63 67 1.0 68 1.0 69 1.0
 64 70 1.0 71 1.0 72 1.0
 65 73 1.0 74 1.0 75 1.0
 66 76 1.0 77 1.0 78 1.0
 67
 68
 69
 70
 71
 72
 73
 74
 75
 76
 77
 78
 79
 80
 81
 82
 83 97 1.0 101 1.0 105 1.0
 84 85 1.0 89 1.0 93 1.0
 85 86 1.0 87 1.0 88 1.0
 86
 87
 88
 89 90 1.0 91 1.0 92 1.0
 90
 91
 92
 93 94 1.0 95 1.0 96 1.0
 94
 95
 96
 97 98 1.0 99 1.0 100 1.0
 98
 99
 100
 101 102 1.0 103 1.0 104 1.0
 102
 103
 104
 105 106 1.0 107 1.0 108 1.0
 106
 107
 108

