%nprocshared=20
%mem=4GB
%chk=Ir2mphenPh_charges.chk
# freq rb3lyp/lanl2dz scrf=check guess=tcheck geom=(connectivity,allcheck)
genchk

1

0 1
 C                 -1.52361000    3.27744900   -0.79624200
 H                 -2.46938600    2.75115400   -0.75736300
 C                 -1.46270500    4.69140900   -0.86823700
 C                 -0.22316100    5.33062100   -0.88139600
 C                  0.96270700    4.54866000   -0.80692000
 C                  2.29344900    5.11165600   -0.79265900
 H                  2.40001200    6.19238300   -0.85446300
 C                  3.40460600    4.30549500   -0.69769300
 H                  4.40174000    4.73969000   -0.68529100
 C                  3.27686200    2.86860500   -0.60378700
 C                  4.38511000    1.99004300   -0.47528000
 C                  4.18641000    0.60597800   -0.37639400
 C                  2.84155900    0.12192100   -0.40039000
 H                  2.60245000   -0.93665200   -0.34215900
 C                  1.97621800    2.29526100   -0.61914300
 C                  0.81403600    3.13490500   -0.73443000
 C                 -4.13569500   -0.57141800   -2.42870300
 C                 -4.62427000   -0.60848800   -0.92278600
 C                 -4.51244600    0.72749400   -3.16917500
 H                 -4.24681700    1.61144600   -2.57745700
 H                 -5.58495000    0.77073000   -3.39897700
 H                 -3.95181900    0.76914500   -4.11014700
 C                 -4.51394200   -1.79614700   -3.26984600
 H                 -4.10157900   -1.68619100   -4.27996400
 H                 -5.60498200   -1.89880000   -3.35226400
 H                 -4.10270300   -2.71204800   -2.83755200
 C                 -5.91069900    0.17205700   -0.63103100
 H                 -6.12387500    0.13235500    0.44370600
 H                 -6.76448400   -0.26722300   -1.16509200
 H                 -5.82228900    1.22435400   -0.91738000
 C                 -4.70618400   -2.03518500   -0.34456000
 H                 -3.75989800   -2.56644200   -0.49119400
 H                 -5.52415800   -2.61008500   -0.79790400
 H                 -4.88674800   -1.96743800    0.73480600
 C                 -0.51648500   -4.01408500    0.13830900
 C                  0.97501400   -3.83388400   -0.35751700
 C                 -0.64417400   -4.11728100    1.67096200
 H                 -0.15076300   -3.27171400    2.16077700
 H                 -0.22730400   -5.05907900    2.05121600
 H                 -1.70674200   -4.07422600    1.93661500
 C                 -1.30088400   -5.13863900   -0.54813900
 H                 -2.33029900   -5.14400400   -0.17074300
 H                 -0.85359400   -6.11919600   -0.33408900
 H                 -1.34104100   -4.99722400   -1.63178300
 C                  2.04238900   -4.50182200    0.51725200
 H                  3.03820300   -4.29544500    0.10502100
 H                  1.90503200   -5.59141000    0.54078500
 H                  2.00867500   -4.12333500    1.54300100
 C                  1.17553200   -4.20385500   -1.84071200
 H                  0.42416700   -3.71474100   -2.47048700
 H                  1.11581300   -5.28806800   -1.99989000
 H                  2.16565700   -3.86093200   -2.16395900
 B                 -2.29673700   -0.10202700   -0.96876600
 B                 -0.13682200   -1.69890300   -0.32778000
 N                 -0.41509000    2.51494800   -0.74746500
 N                  1.77610300    0.93630200   -0.50932600
 O                 -2.65062400   -0.55921000   -2.27130700
 O                 -3.49133400    0.06788100   -0.21383100
 O                 -1.12719000   -2.71034500   -0.25316500
 O                  1.14635700   -2.35114600   -0.26297800
 Ir                -0.35966300    0.32664800   -0.55052000
 B                 -0.91915600    0.43352400    1.35575100
 O                 -1.32587300    1.65536700    1.95846200
 O                 -0.91777400   -0.59017500    2.32965700
 C                 -1.45414300    1.45964200    3.43541900
 C                 -1.65756000   -0.10851500    3.53954100
 C                 -0.13147600    1.94745600    4.05846600
 C                 -2.63248900    2.30638300    3.92815700
 C                 -1.03950400   -0.76967200    4.77554100
 C                 -3.12359400   -0.54622100    3.35548200
 H                  0.71389500    1.34563500    3.70579000
 H                 -0.15850600    1.90550100    5.15474900
 H                  0.03962000    2.98685100    3.75467900
 H                 -2.40525900    3.36951400    3.78380000
 H                 -2.81900900    2.13766000    4.99766100
 H                 -3.54376400    2.07629500    3.36974400
 H                 -1.18775100   -1.85432600    4.71867900
 H                 -1.51979500   -0.40682000    5.69455900
 H                  0.03574200   -0.57977800    4.84157500
 H                 -3.54196200   -0.12720300    2.43411500
 H                 -3.74492400   -0.24805000    4.20997200
 H                 -3.15376800   -1.63850400    3.26725700
 H                 -2.38795100    5.25715900   -0.90766400
 H                 -0.15412000    6.41418100   -0.93865300
 H                  5.38770100    2.40721800   -0.42854700
 C                  5.31807200   -0.35161700   -0.24480200
 C                  5.15981500   -1.56609700    0.46658100
 C                  6.57938900   -0.07049000   -0.82412100
 C                  6.23137500   -2.46524100    0.59936800
 H                  4.20611300   -1.80158900    0.93107300
 C                  7.65094700   -0.96918100   -0.69070000
 H                  6.71791100    0.83722600   -1.40675300
 C                  7.48257400   -2.17137700    0.02378300
 H                  6.09136700   -3.38884500    1.15554200
 H                  8.60909900   -0.73848200   -1.15014700
 H                  8.31081700   -2.86816700    0.12643200

 1 2 1.0 3 1.5 55 1.5
 2
 3 4 1.5 83 1.0
 4 5 1.5 84 1.0
 5 6 1.5 16 1.5
 6 7 1.0 8 2.0
 7
 8 9 1.0 10 1.5
 9
 10 11 1.5 15 1.5
 11 12 1.5 85 1.0
 12 13 1.5 86 1.0
 13 14 1.0 56 1.5
 14
 15 16 1.5 56 1.5
 16 55 1.5
 17 18 1.0 19 1.0 23 1.0 57 1.0
 18 27 1.0 31 1.0 58 1.0
 19 20 1.0 21 1.0 22 1.0
 20
 21
 22
 23 24 1.0 25 1.0 26 1.0
 24
 25
 26
 27 28 1.0 29 1.0 30 1.0
 28
 29
 30
 31 32 1.0 33 1.0 34 1.0
 32
 33
 34
 35 36 1.0 37 1.0 41 1.0 59 1.0
 36 45 1.0 49 1.0 60 1.0
 37 38 1.0 39 1.0 40 1.0
 38
 39
 40
 41 42 1.0 43 1.0 44 1.0
 42
 43
 44
 45 46 1.0 47 1.0 48 1.0
 46
 47
 48
 49 50 1.0 51 1.0 52 1.0
 50
 51
 52
 53 57 1.0 58 1.0 61 1.0
 54 59 1.0 60 1.0 61 1.0
 55
 56
 57
 58
 59
 60
 61 62 1.0
 62 63 1.0 64 1.0
 63 65 1.0
 64 66 1.0
 65 66 1.0 67 1.0 68 1.0
 66 69 1.0 70 1.0
 67 71 1.0 72 1.0 73 1.0
 68 74 1.0 75 1.0 76 1.0
 69 77 1.0 78 1.0 79 1.0
 70 80 1.0 81 1.0 82 1.0
 71
 72
 73
 74
 75
 76
 77
 78
 79
 80
 81
 82
 83
 84
 85
 86 87 1.5 88 1.5
 87 89 1.5 90 1.0
 88 91 1.5 92 1.0
 89 93 1.5 94 1.0
 90
 91 93 1.5 95 1.0
 92
 93 96 1.0
 94
 95
 96

