%nprocshared=20
%mem=100MW
%chk=IrSMAP.chk
# freq rb3lyp/lanl2dz scrf=check guess=tcheck geom=(connectivity,allcheck)
genchk

Title Card Required

0 1
 C                 -2.12217800    3.74405200    1.11368300
 C                 -2.50609300    2.73906100    2.28064500
 C                 -0.71987300    4.36289400    1.26767800
 H                  0.03161000    3.59431400    1.48368700
 H                 -0.69305100    5.11026300    2.07063600
 H                 -0.44674600    4.85398400    0.32661100
 C                 -3.16483900    4.82587600    0.81606200
 H                 -2.82070300    5.44829900   -0.01826600
 H                 -3.31784900    5.47431100    1.68954600
 H                 -4.12213000    4.38182000    0.53172300
 C                 -1.89240300    3.05662200    3.64704400
 H                 -2.17020100    2.27226000    4.36053200
 H                 -2.26792400    4.01531500    4.02964800
 H                 -0.80037700    3.10015100    3.60200800
 C                 -4.02201100    2.49168100    2.39707700
 H                 -4.44600500    2.19917600    1.43057700
 H                 -4.54671800    3.37906300    2.77365500
 H                 -4.18925300    1.66517000    3.09739700
 C                 -5.89703700   -0.11118100   -0.98047300
 C                 -5.48612700   -0.89237000   -2.29567000
 C                 -6.25308900   -1.03833400    0.19792800
 H                 -5.45553300   -1.76677700    0.37624600
 H                 -7.19948200   -1.56706700    0.02553400
 H                 -6.35487200   -0.43003700    1.10424500
 C                 -6.96924900    0.96735000   -1.16957600
 H                 -7.14330900    1.47855800   -0.21545600
 H                 -7.91870800    0.52186600   -1.49651700
 H                 -6.66087300    1.71795600   -1.90250500
 C                 -6.14817000   -2.26177800   -2.48138100
 H                 -5.76019400   -2.73273700   -3.39226300
 H                 -7.23758600   -2.16239400   -2.58312400
 H                 -5.93116200   -2.92583500   -1.64042600
 C                 -5.61032800   -0.04852900   -3.57934100
 H                 -5.12517100    0.92688600   -3.45920000
 H                 -6.65876300    0.11408700   -3.85990600
 H                 -5.10957000   -0.57813200   -4.39802500
 B                 -1.86258800    1.50165300    0.37931900
 B                 -3.52635800   -0.15030100   -1.15505500
 O                 -2.05639700    2.82699700   -0.07239200
 O                 -1.90761000    1.45177600    1.78654600
 O                 -4.61184900    0.56684900   -0.60627300
 O                 -4.01807900   -1.11237700   -2.07701200
 Ir                -1.49638100    0.04799000   -0.92209200
 B                 -1.64161900   -1.36060300    0.48747300
 O                 -0.49548300   -2.05286400    0.97283500
 O                 -2.79392700   -1.86333600    1.11756000
 C                 -0.94477900   -3.20082800    1.83252700
 C                 -2.38840900   -2.72172400    2.27763300
 C                 -0.96508000   -4.44208200    0.92046100
 C                  0.06629800   -3.37309300    2.97033700
 C                 -3.42552900   -3.83819000    2.43481100
 C                 -2.37808600   -1.80203100    3.51338900
 H                 -1.67601400   -4.31448500    0.09642500
 H                 -1.23388300   -5.34853000    1.47701000
 H                  0.03325800   -4.58508000    0.49060600
 H                  1.04003800   -3.66338200    2.55801200
 H                 -0.25762300   -4.16058200    3.66395600
 H                  0.19674800   -2.44437100    3.53235000
 H                 -4.39564300   -3.39865200    2.69353400
 H                 -3.13727600   -4.52823600    3.23929900
 H                 -3.54908100   -4.40727100    1.50938200
 H                 -1.67987600   -0.96921500    3.38025400
 H                 -2.11776000   -2.35401600    4.42552600
 H                 -3.37885200   -1.37355800    3.63747000
 P                  1.03882200    0.14585700   -0.83388800
 Si                 4.15312000    0.23612400   -0.59467300
 C                  1.76441100    0.42973500    0.91602000
 C                  3.26710800    0.86948200    0.95695700
 C                  1.99542600   -1.42137800   -1.38919900
 C                  3.48022700   -1.51184500   -0.89312600
 C                  1.94901300    1.51088300   -1.83895600
 C                  3.49008900    1.29054400   -2.02514700
 H                  1.11604400    1.15936400    1.41236100
 H                  1.60874600   -0.52472100    1.42914000
 H                  3.34090700    1.96507500    1.00598000
 H                  3.73831900    0.48155800    1.87056600
 H                  1.40616400   -2.26996700   -1.02904300
 H                  1.95434700   -1.42760900   -2.48630200
 H                  3.52982000   -2.08962000    0.03929900
 H                  4.08477500   -2.05689700   -1.63095900
 H                  1.44459800    1.59544800   -2.80881000
 H                  1.75406200    2.44723200   -1.30094700
 H                  3.68674200    0.78416000   -2.98014100
 H                  3.99973500    2.26244800   -2.07747100
 O                  5.82774400    0.31239700   -0.47754700
 Si                 7.38339100   -0.10472400   -0.15316100
 O                  8.27843400    1.28212600    0.14918100
 O                  8.16885300   -0.88181500   -1.40317300
 O                  7.32205400   -1.16864400    1.13435600
 C                  8.90980400   -0.35545400   -2.53132400
 H                  9.54151000   -1.16415600   -2.91053000
 H                  8.22029600   -0.03399500   -3.32336600
 H                  9.53577500    0.49225900   -2.22522200
 C                  8.32143300   -2.10116900    1.61679000
 H                  9.12891000   -1.56778800    2.13641600
 H                  7.82145600   -2.77328100    2.32021300
 H                  8.74396900   -2.68233300    0.78725000
 C                  7.94776900    2.48318400    0.88428700
 H                  8.72137400    3.22428900    0.66238800
 H                  6.96844400    2.87543600    0.57710300
 H                  7.93553800    2.28642000    1.96483600

 1 2 1.0 3 1.0 7 1.0 39 1.0
 2 11 1.0 15 1.0 40 1.0
 3 4 1.0 5 1.0 6 1.0
 4
 5
 6
 7 8 1.0 9 1.0 10 1.0
 8
 9
 10
 11 12 1.0 13 1.0 14 1.0
 12
 13
 14
 15 16 1.0 17 1.0 18 1.0
 16
 17
 18
 19 20 1.0 21 1.0 25 1.0 41 1.0
 20 29 1.0 33 1.0 42 1.0
 21 22 1.0 23 1.0 24 1.0
 22
 23
 24
 25 26 1.0 27 1.0 28 1.0
 26
 27
 28
 29 30 1.0 31 1.0 32 1.0
 30
 31
 32
 33 34 1.0 35 1.0 36 1.0
 34
 35
 36
 37 39 1.0 40 1.0 43 1.0
 38 41 1.0 42 1.0 43 1.0
 39
 40
 41
 42
 43 44 1.0
 44 45 1.0 46 1.0
 45 47 1.0
 46 48 1.0
 47 48 1.0 49 1.0 50 1.0
 48 51 1.0 52 1.0
 49 53 1.0 54 1.0 55 1.0
 50 56 1.0 57 1.0 58 1.0
 51 59 1.0 60 1.0 61 1.0
 52 62 1.0 63 1.0 64 1.0
 53
 54
 55
 56
 57
 58
 59
 60
 61
 62
 63
 64
 65 67 1.0 69 1.0 71 1.0
 66 68 1.0 70 1.0 72 1.0 85 1.5
 67 68 1.0 73 1.0 74 1.0
 68 75 1.0 76 1.0
 69 70 1.0 77 1.0 78 1.0
 70 79 1.0 80 1.0
 71 72 1.0 81 1.0 82 1.0
 72 83 1.0 84 1.0
 73
 74
 75
 76
 77
 78
 79
 80
 81
 82
 83
 84
 85 86 2.0
 86 87 1.5 88 1.5 89 1.5
 87 98 1.0
 88 90 1.0
 89 94 1.0
 90 91 1.0 92 1.0 93 1.0
 91
 92
 93
 94 95 1.0 96 1.0 97 1.0
 95
 96
 97
 98 99 1.0 100 1.0 101 1.0
 99
 100
 101

