%nprocshared=20
%mem=4GB
%chk=IrtAs.chk
# freq rb3lyp/lanl2dz scrf=check guess=tcheck geom=(connectivity,allcheck)
genchk

tit

0 1
 C                 -0.84342800   -1.08086700    3.84037500
 C                 -0.13356400   -2.45411400    3.49018500
 C                  0.07568500   -0.06999900    4.55087000
 H                  1.03435800    0.03326400    4.03238600
 H                  0.27142000   -0.36620700    5.58939200
 H                 -0.41632700    0.90914700    4.55591200
 C                 -2.18001300   -1.20520700    4.58011800
 H                 -2.61590500   -0.20865900    4.71720900
 H                 -2.03459600   -1.65406500    5.57185500
 H                 -2.89434900   -1.81749000    4.02292000
 C                  0.96634100   -2.88408200    4.46600200
 H                  1.42462200   -3.81500800    4.11151800
 H                  0.55010700   -3.06968100    5.46551200
 H                  1.75119600   -2.12743900    4.54508500
 C                 -1.12221300   -3.60604800    3.22837800
 H                 -1.85763500   -3.32455400    2.46769400
 H                 -1.63948600   -3.90927400    4.14764900
 H                 -0.56524200   -4.46879400    2.84565800
 C                 -3.03347700   -3.59214500   -0.95323100
 C                 -3.07703000   -2.78075900   -2.32602400
 C                 -2.23951200   -4.90884400   -1.03698400
 H                 -1.23013100   -4.72423600   -1.41303500
 H                 -2.74520600   -5.64334700   -1.67695200
 H                 -2.15271600   -5.32955500   -0.02809400
 C                 -4.39965900   -3.83389900   -0.29812200
 H                 -4.25396300   -4.35654300    0.65490900
 H                 -5.03427500   -4.46249100   -0.93747400
 H                 -4.92224000   -2.89652200   -0.09210100
 C                 -2.80000700   -3.61629700   -3.58311300
 H                 -2.80273600   -2.95934200   -4.46105500
 H                 -3.57345100   -4.38303700   -3.72675100
 H                 -1.82278900   -4.10272100   -3.52976000
 C                 -4.35073500   -1.93762200   -2.51553500
 H                 -4.54051300   -1.29227400   -1.65356300
 H                 -5.23081300   -2.57310600   -2.67720100
 H                 -4.22449600   -1.29563700   -3.39557600
 B                 -0.21059000   -1.09974300    1.54054500
 B                 -1.50775700   -1.76660600   -0.82114200
 O                 -1.11454100   -0.52524100    2.47326200
 O                  0.50666500   -2.13878000    2.16988100
 O                 -2.24802500   -2.68349500   -0.05478400
 O                 -1.93996700   -1.81437100   -2.17032300
 B                  1.19998200   -2.06702600   -0.62902100
 O                  2.59545400   -2.11628700   -0.36687600
 O                  0.80124500   -3.33374000   -1.12602000
 C                  3.17342200   -3.41291100   -0.85161200
 C                  1.89132800   -4.33755800   -0.90118600
 C                  3.78318100   -3.14582800   -2.23945100
 C                  4.25991100   -3.84750300    0.13941100
 C                  1.85902300   -5.34988100   -2.05185500
 C                  1.58236100   -5.02508600    0.44262300
 H                  3.01829300   -2.81719800   -2.95120800
 H                  4.26905600   -4.04548600   -2.63894100
 H                  4.53167000   -2.35204000   -2.15975500
 H                  5.07938100   -3.11914900    0.12378400
 H                  4.67065700   -4.82831000   -0.13586400
 H                  3.87150800   -3.90481300    1.16015000
 H                  0.92121600   -5.91657300   -2.01476900
 H                  2.68954400   -6.06420500   -1.96876500
 H                  1.91652700   -4.85524800   -3.02526500
 H                  1.54787200   -4.28896200    1.25166400
 H                  2.32598600   -5.79729100    0.67855000
 H                  0.59674200   -5.49969400    0.37858400
 C                 -2.17269400    2.34518500   -1.83203800
 C                 -2.09517600    1.54650800   -2.99946200
 C                 -2.24293400    2.13257600   -4.27124200
 C                 -2.46662600    3.51783500   -4.39500900
 C                 -2.54220600    4.31617600   -3.23760200
 C                 -2.39645700    3.73261100   -1.96330100
 C                 -1.81650300    2.88539200    1.22167900
 C                 -2.90426800    3.74760100    1.48581500
 C                 -2.78915800    4.76808700    2.44836300
 C                 -1.58764600    4.93241700    3.16552600
 C                 -0.50759500    4.06407400    2.92113000
 C                 -0.62416400    3.04627100    1.95600300
 H                 -1.93301900    0.47183200   -2.92211400
 H                 -2.18085700    1.50794300   -5.15949100
 H                 -2.57723600    3.96898800   -5.37855900
 H                 -2.71454000    5.38705000   -3.32371000
 H                 -2.44704700    4.36491400   -1.08093000
 H                 -3.85037700    3.61117300    0.96784600
 H                 -3.63508900    5.42380100    2.64244000
 H                 -1.49993400    5.71906800    3.91172500
 H                  0.41755800    4.17010700    3.48290100
 H                  0.20310700    2.36182500    1.79688900
 C                  3.64916000    0.62756100   -1.45561700
 C                  3.32377500    0.53844900   -2.82579900
 C                  4.32716600    0.31924000   -3.78685600
 C                  5.67023100    0.17852100   -3.38607000
 C                  5.99784800    0.25416000   -2.01878900
 C                  4.99195400    0.47848400   -1.05796900
 C                  3.06123800    1.01587300    1.57060900
 C                  3.49353900   -0.24022200    2.05668500
 C                  4.09231300   -0.33745500    3.32693700
 C                  4.24690800    0.80622200    4.13457000
 C                  3.78977200    2.05247300    3.66644200
 C                  3.19955800    2.15710500    2.39182500
 H                  2.29085400    0.64608700   -3.15312100
 H                  4.06140400    0.25837200   -4.83973200
 H                  6.44837500    0.01115500   -4.12736900
 H                  7.03186300    0.14363600   -1.69887400
 H                  5.26137900    0.53233000   -0.00644300
 H                  3.34445600   -1.12817400    1.44928400
 H                  4.43002100   -1.30771000    3.68481400
 H                  4.70935500    0.72640000    5.11600100
 H                  3.89381700    2.94102800    4.28541300
 H                  2.86155200    3.12914000    2.04446000
 Ir                -0.03315300   -0.42655100   -0.33447400
 C                 -3.81479500    0.86962000    0.23698500
 C                 -4.88747600    1.37879500   -0.52655400
 C                 -4.08537000   -0.01100700    1.30783600
 C                 -6.21499400    1.01934100   -0.22071600
 H                 -4.69822600    2.04544500   -1.36321600
 C                 -5.41313900   -0.36377200    1.61413100
 H                 -3.26111800   -0.41260000    1.88829000
 C                 -6.48203700    0.14969000    0.85361800
 H                 -7.03154300    1.41729700   -0.81933600
 H                 -5.61042200   -1.04168100    2.44179500
 H                 -7.50700100   -0.12619600    1.09236000
 C                  2.27727600    3.04707800   -0.60249100
 C                  1.15786000    3.70950500   -1.13959500
 C                  3.48856000    3.76406900   -0.46190000
 C                  1.23363800    5.06438500   -1.51863300
 H                  0.22501700    3.17744100   -1.28499500
 C                  3.56578800    5.11863100   -0.82958900
 H                  4.37777200    3.26814800   -0.08125400
 C                  2.43576500    5.77499300   -1.35930500
 H                  0.35685500    5.55142900   -1.93815400
 H                  4.50491700    5.65524600   -0.71409400
 H                  2.49741100    6.82133000   -1.65007800
 As                -1.93120000    1.40712000   -0.09661400
 As                 2.18062600    1.09383100   -0.20333700

 1 2 1.0 3 1.0 7 1.0 39 1.0
 2 11 1.0 15 1.0 40 1.0
 3 4 1.0 5 1.0 6 1.0
 4
 5
 6
 7 8 1.0 9 1.0 10 1.0
 8
 9
 10
 11 12 1.0 13 1.0 14 1.0
 12
 13
 14
 15 16 1.0 17 1.0 18 1.0
 16
 17
 18
 19 20 1.0 21 1.0 25 1.0 41 1.0
 20 29 1.0 33 1.0 42 1.0
 21 22 1.0 23 1.0 24 1.0
 22
 23
 24
 25 26 1.0 27 1.0 28 1.0
 26
 27
 28
 29 30 1.0 31 1.0 32 1.0
 30
 31
 32
 33 34 1.0 35 1.0 36 1.0
 34
 35
 36
 37 39 1.0 40 1.0 108 1.0
 38 41 1.0 42 1.0 108 1.0
 39
 40
 41
 42
 43 44 1.0 45 1.0 108 1.0
 44 46 1.0
 45 47 1.0
 46 47 1.0 48 1.0 49 1.0
 47 50 1.0 51 1.0
 48 52 1.0 53 1.0 54 1.0
 49 55 1.0 56 1.0 57 1.0
 50 58 1.0 59 1.0 60 1.0
 51 61 1.0 62 1.0 63 1.0
 52
 53
 54
 55
 56
 57
 58
 59
 60
 61
 62
 63
 64 65 1.5 69 1.5 131 1.0
 65 66 1.5 76 1.0
 66 67 1.5 77 1.0
 67 68 1.5 78 1.0
 68 69 1.5 79 1.0
 69 80 1.0
 70 71 1.5 75 1.5 131 1.0
 71 72 1.5 81 1.0
 72 73 1.5 82 1.0
 73 74 1.5 83 1.0
 74 75 1.5 84 1.0
 75 85 1.0
 76
 77
 78
 79
 80
 81
 82
 83
 84
 85
 86 87 1.5 91 1.5 132 1.0
 87 88 1.5 98 1.0
 88 89 1.5 99 1.0
 89 90 1.5 100 1.0
 90 91 1.5 101 1.0
 91 102 1.0
 92 93 1.5 97 1.5 132 1.0
 93 94 1.5 103 1.0
 94 95 1.5 104 1.0
 95 96 1.5 105 1.0
 96 97 1.5 106 1.0
 97 107 1.0
 98
 99
 100
 101
 102
 103
 104
 105
 106
 107
 108
 109 110 1.5 111 1.5 131 1.0
 110 112 1.5 113 1.0
 111 114 1.5 115 1.0
 112 116 1.5 117 1.0
 113
 114 116 1.5 118 1.0
 115
 116 119 1.0
 117
 118
 119
 120 121 1.5 122 1.5 132 1.0
 121 123 1.5 124 1.0
 122 125 1.5 126 1.0
 123 127 1.5 128 1.0
 124
 125 127 1.5 129 1.0
 126
 127 130 1.0
 128
 129
 130
 131
 132

